\ LP format - for model browsing. Use MPS format to capture full model detail.
Maximize
  6 x_1 + x_2 + 9 x_3 + 5 x_4 + 8 x_5
Subject To
 C_1: 7 x_2 + 2 x_3 <= 4
 C_2: 5 x_3 + 3 x_5 <= 4
 C_3: 3 x_1 + 2 x_2 <= 2
 C_4: 6 x_1 + 7 x_3 + 3 x_4 + 2 x_5 <= 9
 C_5: 2 x_1 + 8 x_3 + 2 x_4 + 8 x_5 <= 10
 C_6: 5 x_3 + x_5 <= 3
 C_7: 6 x_3 + 6 x_4 <= 6
 C_8: 5 x_1 + x_3 + 7 x_4 <= 6
 C_9: 8 x_1 + 3 x_2 + 5 x_3 + 7 x_4 + 10 x_5 <= 16
 C_10: 6 x_2 + 9 x_3 + x_4 <= 8
Bounds
Binaries
 x_1 x_2 x_3 x_4 x_5
End
